c read Graph
c width = 2
c time = 16 ms
c width = 1
c time = 113 ms
c width = 1
c time = 4374 ms
s td 10 2 12
b 1 7 8
b 2 1 7
b 3 9 10
b 4 2 9
b 5 3
b 6 4
b 7 5
b 8 6
b 9 11
b 10 12
1 2
1 3
1 5
1 6
1 7
1 8
1 9
1 10
3 4
